43 44 
7 70 
81 36 
86 17 
25 74 
10 83 
5 53 
86 23 
72 76 
38 24 
14 99 
52 45 
30 50 
72 18 
45 60 
3 88 
57 11 
10 90 
99 97 
7 76 
23 17 
11 29 
70 98 
52 42 
26 90 
19 41 
41 23 
86 72 
73 58 
42 18 
71 46 
59 80 
57 21 
70 8 
70 77 
84 94 
46 95 
75 68 
45 27 
10 72 
69 81 
65 63 
4 51 
35 77 
61 29 
48 84 
75 59 
16 84 
80 86 
92 51 
